Problem:    soluzione
Rows:       36
Columns:    25
Non-zeros:  100
Status:     OPTIMAL
Objective:  z = 25508.5 (MINimum)

   No.   Row name   St   Activity     Lower bound   Upper bound    Marginal
------ ------------ -- ------------- ------------- ------------- -------------
     1 ProduzioneMassimaGiornaliera[1]
                    NU           340                         340            -3 
     2 ProduzioneMassimaGiornaliera[2]
                    B            290                         290 
     3 ProduzioneMassimaGiornaliera[3]
                    NU           310                         310            -4 
     4 ProduzioneMassimaGiornaliera[4]
                    NU           325                         325            -1 
     5 ProduzioneMassimaGiornaliera[5]
                    NU           360                         360            -2 
     6 RichiestaMinimaGiornaliera[1]
                    NL           410           410                          18 
     7 RichiestaMinimaGiornaliera[2]
                    NL           200           200                          19 
     8 RichiestaMinimaGiornaliera[3]
                    NL           400           400                          16 
     9 RichiestaMinimaGiornaliera[4]
                    NL           315           315                          24 
    10 RichiestaMinimaGiornaliera[5]
                    NL           300           300                          19 
    11 z            B        25508.5                             
    12 PMO[1,1]     B         -120.5        -289.5               
    13 PMO[1,2]     B              0        -289.5               
    14 PMO[1,3]     B              0        -289.5               
    15 PMO[1,4]     B              0        -289.5               
    16 PMO[1,5]     B         -219.5        -289.5               
    17 PMO[2,1]     B              0        -289.5               
    18 PMO[2,2]     B           -0.5        -289.5               
    19 PMO[2,3]     NL        -289.5        -289.5                           2 
    20 PMO[2,4]     B              0        -289.5               
    21 PMO[2,5]     B              0        -289.5               
    22 PMO[3,1]     B              0        -289.5               
    23 PMO[3,2]     B           -119        -289.5               
    24 PMO[3,3]     B         -110.5        -289.5               
    25 PMO[3,4]     B              0        -289.5               
    26 PMO[3,5]     B          -80.5        -289.5               
    27 PMO[4,1]     NL        -289.5        -289.5                       < eps
    28 PMO[4,2]     B            -10        -289.5               
    29 PMO[4,3]     B              0        -289.5               
    30 PMO[4,4]     B          -25.5        -289.5               
    31 PMO[4,5]     B              0        -289.5               
    32 PMO[5,1]     B              0        -289.5               
    33 PMO[5,2]     B          -70.5        -289.5               
    34 PMO[5,3]     B              0        -289.5               
    35 PMO[5,4]     NL        -289.5        -289.5                           5 
    36 PMO[5,5]     B              0        -289.5               

   No. Column name  St   Activity     Lower bound   Upper bound    Marginal
------ ------------ -- ------------- ------------- ------------- -------------
     1 Trasporto[1,1]
                    B          120.5             0               
     2 Trasporto[1,2]
                    NL             0             0                           2 
     3 Trasporto[1,3]
                    NL             0             0                          10 
     4 Trasporto[1,4]
                    NL             0             0                          10 
     5 Trasporto[1,5]
                    B          219.5             0               
     6 Trasporto[2,1]
                    NL             0             0                           9 
     7 Trasporto[2,2]
                    B            0.5             0               
     8 Trasporto[2,3]
                    B          289.5             0               
     9 Trasporto[2,4]
                    NL             0             0                           4 
    10 Trasporto[2,5]
                    NL             0             0                          12 
    11 Trasporto[3,1]
                    NL             0             0                           6 
    12 Trasporto[3,2]
                    B            119             0               
    13 Trasporto[3,3]
                    B          110.5             0               
    14 Trasporto[3,4]
                    NL             0             0                           5 
    15 Trasporto[3,5]
                    B           80.5             0               
    16 Trasporto[4,1]
                    B          289.5             0               
    17 Trasporto[4,2]
                    B             10             0               
    18 Trasporto[4,3]
                    NL             0             0                           9 
    19 Trasporto[4,4]
                    B           25.5             0               
    20 Trasporto[4,5]
                    NL             0             0                           7 
    21 Trasporto[5,1]
                    NL             0             0                          10 
    22 Trasporto[5,2]
                    B           70.5             0               
    23 Trasporto[5,3]
                    NL             0             0                           3 
    24 Trasporto[5,4]
                    B          289.5             0               
    25 Trasporto[5,5]
                    NL             0             0                          11 

Karush-Kuhn-Tucker optimality conditions:

KKT.PE: max.abs.err = 0.00e+000 on row 0
        max.rel.err = 0.00e+000 on row 0
        High quality

KKT.PB: max.abs.err = 0.00e+000 on row 0
        max.rel.err = 0.00e+000 on row 0
        High quality

KKT.DE: max.abs.err = 0.00e+000 on column 0
        max.rel.err = 0.00e+000 on column 0
        High quality

KKT.DB: max.abs.err = 0.00e+000 on row 0
        max.rel.err = 0.00e+000 on row 0
        High quality

End of output
